//Dat File

outFile="MPVSBPP_SET1_IT200_ITV2_NT1_TS3_WT1_VT1_REP8";
m=200;
o=42;
p=3;
numVTypes=1;

demand = [1, 7, 10, 4, 1, 7, 6, 7, 3, 1, 7, 9, 2, 1, 4, 5, 5, 7, 1, 9, 10, 6, 11, 8, 2, 6, 8, 4, 9, 1, 6, 4, 6, 5, 6, 3, 7, 5, 6, 5, 9, 10, 3, 3, 3, 8, 10, 3, 3, 4, 11, 8, 5, 2, 8, 1, 8, 3, 8, 3, 1, 10, 7, 2, 1, 5, 4, 3, 7, 9, 5, 7, 1, 10, 4, 3, 1, 5, 3, 10, 10, 2, 11, 11, 3, 4, 5, 9, 3, 11, 2, 6, 11, 10, 4, 8, 10, 10, 8, 9, 16, 17, 17, 13, 15, 14, 16, 19, 13, 12, 16, 18, 13, 12, 12, 18, 19, 14, 14, 16, 18, 13, 14, 15, 17, 17, 12, 18, 19, 19, 13, 16, 18, 12, 18, 15, 19, 15, 14, 15, 13, 17, 17, 13, 18, 14, 17, 16, 18, 13, 14, 17, 16, 15, 19, 14, 14, 19, 12, 17, 18, 12, 16, 15, 12, 19, 18, 16, 13, 19, 13, 17, 14, 13, 19, 12, 16, 17, 18, 12, 12, 15, 12, 14, 19, 17, 19, 13, 17, 14, 16, 17, 13, 16, 19, 12, 18, 16, 15, 12];
Depot_Cap = [30000, 30000, 30000];
Tarif = [10, 3, 7];
VeicVolume = [100];
VeicCost = [100];
VeicType = [1, 1, 1, 1, 1, 1, 1, 1, 1, 1, 1, 1, 1, 1, 1, 1, 1, 1, 1, 1, 1, 1, 1, 1, 1, 1, 1, 1, 1, 1, 1, 1, 1, 1, 1, 1, 1, 1, 1, 1, 1, 1];
Elect_vehicle = [[70, 100, 30], [70, 100, 30], [70, 100, 30], [70, 100, 30], [70, 100, 30], [70, 100, 30], [70, 100, 30], [70, 100, 30], [70, 100, 30], [70, 100, 30], [70, 100, 30], [70, 100, 30], [70, 100, 30], [70, 100, 30], [70, 100, 30], [70, 100, 30], [70, 100, 30], [70, 100, 30], [70, 100, 30], [70, 100, 30], [70, 100, 30], [70, 100, 30], [70, 100, 30], [70, 100, 30], [70, 100, 30], [70, 100, 30], [70, 100, 30], [70, 100, 30], [70, 100, 30], [70, 100, 30], [70, 100, 30], [70, 100, 30], [70, 100, 30], [70, 100, 30], [70, 100, 30], [70, 100, 30], [70, 100, 30], [70, 100, 30], [70, 100, 30], [70, 100, 30], [70, 100, 30], [70, 100, 30]];